33D32945 STP File, STP Format Version 1.0

SECTION Comments
Name "cube_n12_d3_s2"
Problem "Euclidean Steiner Tree Problem"
Remark "Generated with STPGenerator. 3 dimensions."
END

SECTION Graph
Nodes 12
END

SECTION Coordinates
DDD 0 0.7009763693 0.8096763491 0.0887954552
DDD 1 0.1214791905 0.3483067552 0.4219620016
DDD 2 0.6998054984 0.0663843365 0.5874823525
DDD 3 0.6429663057 0.9906032789 0.2957182840
DDD 4 0.2713367107 0.0696559870 0.9496393790
DDD 5 0.3821752264 0.3227100961 0.9883655114
DDD 6 0.8425220697 0.2753141943 0.5966266629
DDD 7 0.5564203358 0.8479080023 0.1846236713
DDD 8 0.3974697401 0.8897629529 0.8504806137
DDD 9 0.3177298374 0.1029680931 0.0449004877
DDD 10 0.6449911807 0.8039444624 0.8545768367
DDD 11 0.7337866364 0.9254236528 0.2028835920
END
